n_nodes = 20;
edges = [
	{2, 3, 4, 5, 6, 10, 18},
	{3, 4, 5, 6, 8, 20},
	{4, 5, 6},
	{5, 6, 8, 19, 20},
	{6},
	{10},
	{8, 9, 10, 11, 12, 13, 14, 15, 16, 17, 18, 19, 20},
	{9, 10, 11, 12, 13, 14, 15, 16, 17, 18, 19, 20},
	{10, 11, 12, 13, 14, 15, 16, 17, 18, 19, 20},
	{11, 12, 13, 14, 15, 16, 17, 18, 20},
	{12, 13, 14, 15, 16, 17, 18, 19, 20},
	{13, 14, 15, 16, 17, 18, 19, 20},
	{14, 15, 16, 17, 18, 19, 20},
	{15, 16, 17, 18, 19, 20},
	{16, 17, 18, 19, 20},
	{17, 18, 19, 20},
	{18, 19, 20},
	{19, 20},
	{20},
	{ }
];